32      3       
10      10      10      
0       0       0       0       1       2       
5       1       1       0       2       3       5       
2       5       4       0       1       4       
10      4       0       1       2       6       7       
3       6       2       0       2       6       7       
5       4       4       3       1       8       
6       3       3       0       1       8       
4       0       4       3       1       9       
1       3       5       0       1       10      
9       3       2       0       1       11      
2       3       8       4       1       12      
6       5       3       0       1       13      
9       4       3       0       1       14      
7       0       7       3       2       15      16      
6       5       5       0       1       17      
7       5       7       0       1       17      
4       5       6       0       2       18      19      
2       3       3       0       2       20      21      
4       5       5       3       1       20      
3       0       4       6       1       22      
7       2       0       4       1       22      
6       0       2       2       1       23      
4       3       5       3       1       24      
1       3       3       0       2       25      27      
7       0       4       1       1       26      
3       5       4       8       1       28      
3       0       5       6       1       28      
2       4       4       5       1       29      
8       6       0       6       1       30      
2       4       3       6       1       31      
7       5       2       0       1       32      
0       0       0       0       0       
